============================[ Problem Statistics ]=============================|                                                                             ||  Number of variables:           100                                         ||  Number of clauses:            1500                                         ||  Parse time:                   0.00 s                                       ||  Eliminated clauses:           0.00 Mb                                      ||  Simplification time:          0.00 s                                       ||                                                                             |============================[ Search Statistics ]==============================| Conflicts |          ORIGINAL         |          LEARNT          | Progress ||           |    Vars  Clauses Literals |    Limit  Clauses Lit/Cl |          |==============================================================================================================================================================restarts              : 1conflicts             : 17             (inf /sec)decisions             : 18             (0.00 % random) (inf /sec)propagations          : 221            (inf /sec)conflict literals     : 34             (17.07 % deleted)Memory used           : 5.00 MBCPU time              : 0 sUNSATISFIABLE